GLPSOL--GLPK LP/MIP Solver 5.0
Parameter(s) specified in the command line:
 --lp ../modeles/3_429.lp --log 3_429.log
Reading problem data from '../modeles/3_429.lp'...
1300 rows, 2580 columns, 9024 non-zeros
1287 integer variables, all of which are binary
3889 lines were read
GLPK Integer Optimizer 5.0
1300 rows, 2580 columns, 9024 non-zeros
1287 integer variables, all of which are binary
Preprocessing...
1278 constraint coefficient(s) were reduced
1300 rows, 2577 columns, 9021 non-zeros
1287 integer variables, all of which are binary
Scaling...
 A: min|aij| =  2.173e-05  max|aij| =  4.000e+00  ratio =  1.840e+05
GM: min|aij| =  4.828e-02  max|aij| =  2.071e+01  ratio =  4.290e+02
EQ: min|aij| =  2.331e-03  max|aij| =  1.000e+00  ratio =  4.290e+02
2N: min|aij| =  1.953e-03  max|aij| =  1.764e+00  ratio =  9.032e+02
Constructing initial basis...
Size of triangular part is 1300
Solving LP relaxation...
GLPK Simplex Optimizer 5.0
1300 rows, 2577 columns, 9021 non-zeros
      0: obj =   6.000000000e+00 inf =   1.450e+01 (7)
     68: obj =   4.999701152e-01 inf =   0.000e+00 (0)
*   233: obj =  -1.731995827e+00 inf =   1.405e-15 (0)
OPTIMAL LP SOLUTION FOUND
Integer optimization begins...
Long-step dual simplex will be used
+   233: mip =     not found yet >=              -inf        (1; 0)
+   726: >>>>>  -1.731995827e+00 >=  -1.731995827e+00 < 0.1% (492; 0)
+   726: mip =  -1.731995827e+00 >=     tree is empty   0.0% (0; 983)
INTEGER OPTIMAL SOLUTION FOUND
Time used:   0.9 secs
Memory used: 3.8 Mb (3976171 bytes)
